\ Model Routes
\ LP format - for model browsing. Use MPS format to capture full model detail.
Maximize
  1533.228206194839 R{0,0} + 2591.679024458567 R{0,1}
   + 2591.679024458567 R{0,2} - 249.2301939667805 R{0,3}
   + 222.8649545650627 R{0,4} + 892.5014194710873 R{0,5}
   + 1930.452493260636 R{0,6} + 1455.425383485167 R{0,7}
   + 1684.385901402009 R{0,8} + 1747.998964427345 R{0,9}
   + 981.2439684340484 R{0,10} + 1492.113081613974 R{0,11}
   + 1196.962243610067 R{0,12} + 1295.558861888244 R{0,13}
   + 1041.989216925748 R{0,14} + 2071.519986804486 R{0,15}
   + 1343.332393075777 R{0,16} + 1468.73593143283 R{0,17}
   + 1343.665823645343 R{0,18} + 1061.486834360426 R{0,19}
   + 1609.751028200071 R{0,20} + 1038.757000782357 R{0,21}
   + 1286.845939442826 R{0,22} + 1294.682123897891 R{0,23}
   + 1282.596812747201 R{0,24} + 1279.118906165258 R{0,25}
   - 256.140831891889 R{1,0} + 216.3226429839851 R{1,1}
   + 843.8103196491563 R{1,2} + 349.9654058633731 R{1,3}
   + 155.8387343549493 R{1,4} + 865.8435766166604 R{1,5}
   + 541.9724420902087 R{1,6} + 1332.131328671378 R{1,7}
   + 388.9877803161517 R{1,8} + 422.7869699732668 R{1,9}
   + 1081.624633198587 R{1,10} + 286.3986078918789 R{1,11}
   + 528.4266309576979 R{1,12} + 492.7276802790064 R{1,13}
   + 545.7513221325397 R{1,14} - 278.4443928850388 R{2,0}
   - 59.13410337035452 R{2,1} + 602.7748664658451 R{2,2}
   + 1100.505917706273 R{2,3} + 661.1183809175574 R{2,4}
   + 1005.777703503751 R{2,5} + 969.9885653300444 R{2,6}
   + 631.0544453670872 R{2,7} - 260.2482995389823 R{3,0}
   + 459.0257104485919 R{3,1} + 838.3862215394925 R{3,2}
   + 904.0941210635312 R{3,3} + 822.4347491465708 R{3,4}
   + 650.6033265680742 R{3,5} + 284.0323750793806 R{3,6}
   + 530.9231038222915 R{3,7} + 959.3451405544915 R{3,8}
   + 406.1296014523433 R{3,9} + 128.2658712426438 R{3,10}
   + 521.2561681094396 R{3,11} + 1211.431662311824 R{3,12}
   + 400.0733862896059 R{3,13} + 614.0478390880958 R{3,14}
   + 674.7567065366272 R{3,15} + 1151.90502085047 R{3,16}
   + 733.2729730513612 R{3,17} + 1054.117217627528 R{3,18}
   + 312.6200463744217 R{3,19} + 868.775428906458 R{3,20}
   + 98.43109538306339 R{3,21} + 339.3283814027393 R{3,22}
   - 242.5208875955131 R{4,0} + 1066.379443184683 R{4,1}
   + 1576.196574514046 R{4,2} + 1529.283360765447 R{4,3}
   + 1381.323325921135 R{4,4} + 1307.814957378979 R{4,5}
   + 1104.942532556267 R{4,6} + 1091.026981524554 R{4,7}
   + 926.6049210864558 R{4,8} + 1298.899018863979 R{4,9}
   + 1274.36549094027 R{4,10} + 880.7866037877545 R{4,11}
   + 1090.561604570247 R{4,12} + 1295.180845522503 R{4,13}
   + 1145.45310833625 R{4,14} + 1297.830683499518 R{4,15}
   + 1145.45310833625 R{4,16} + 819.9087414125604 R{4,17}
   + 925.6193789736358 R{4,18} + 1302.270127107078 R{4,19}
   + 1069.771149813349 R{4,20} + 1635.568299987527 R{4,21}
   + 1427.526070544752 R{4,22} + 1307.814957378979 R{4,23}
   + 1076.646053538534 R{4,24} + 858.1933072395218 R{4,25}
   + 910.5377790687585 R{4,26} + 1132.067776546129 R{4,27}
   - 231.9775664337766 R{5,0} + 242.1080744790759 R{5,1}
   + 1358.300299535796 R{5,2} + 1358.300299535796 R{5,3}
   + 887.4769883356541 R{5,4} + 1550.268200800224 R{5,5}
   + 990.4856615971273 R{5,6} + 717.9593791986497 R{5,7}
   + 673.6261722352688 R{5,8} + 933.6723017251772 R{5,9}
   + 720.7073609433889 R{5,10} + 986.6587133537703 R{5,11}
   + 1626.096089882478 R{5,12} + 601.6761469908637 R{5,13}
   + 820.0348664836449 R{5,14} + 1358.97632164148 R{5,15}
   + 1944.231059956159 R{5,16} + 1534.402254381805 R{5,17}
   + 997.6872092056278 R{5,18} + 1115.176270114667 R{5,19}
   + 999.720007489253 R{5,20} + 811.0681168551328 R{5,21}
   + 998.8250558079208 R{5,22} + 1035.679529292928 R{5,23}
   - 231.1436095783099 R{6,0} + 1176.726709432252 R{6,1}
   + 1612.654371164076 R{6,2} + 2470.437489173644 R{6,3}
   + 795.1982367114947 R{6,4} + 1940.781221554525 R{6,5}
   + 725.7167353155852 R{6,6} + 1434.217990341743 R{6,7}
   + 1997.26572789469 R{6,8} + 292.5490523156149 R{6,9}
   + 1946.682069785035 R{6,10} + 704.5729645542593 R{6,11}
   + 635.6310882946765 R{6,12} + 1288.680242430659 R{6,13}
   + 1091.481399076154 R{6,14} + 1497.776605778245 R{6,15}
   + 1072.574189990156 R{6,16} + 1212.129258176979 R{6,17}
   + 769.6432394030801 R{6,18} + 1365.72530764036 R{6,19}
   + 1867.992275663555 R{6,20} + 1573.12102406719 R{6,21}
   + 1364.254720045291 R{6,22} + 2067.306198593559 R{6,23}
Subject To
 R00: R{0,0} <= 1
 R01: R{0,1} <= 1
 R02: R{0,2} <= 1
 R03: R{0,3} <= 1
 R04: R{0,4} <= 1
 R05: R{0,5} <= 1
 R06: R{0,6} <= 1
 R07: R{0,7} <= 1
 R08: R{0,8} <= 1
 R09: R{0,9} <= 1
 R010: R{0,10} <= 1
 R011: R{0,11} <= 1
 R012: R{0,12} <= 1
 R013: R{0,13} <= 1
 R014: R{0,14} <= 1
 R015: R{0,15} <= 1
 R016: R{0,16} <= 1
 R017: R{0,17} <= 1
 R018: R{0,18} <= 1
 R019: R{0,19} <= 1
 R020: R{0,20} <= 1
 R021: R{0,21} <= 1
 R022: R{0,22} <= 1
 R023: R{0,23} <= 1
 R024: R{0,24} <= 1
 R025: R{0,25} <= 1
 R026: R{1,0} <= 1
 R027: R{1,1} <= 1
 R028: R{1,2} <= 1
 R029: R{1,3} <= 1
 R030: R{1,4} <= 1
 R031: R{1,5} <= 1
 R032: R{1,6} <= 1
 R033: R{1,7} <= 1
 R034: R{1,8} <= 1
 R035: R{1,9} <= 1
 R036: R{1,10} <= 1
 R037: R{1,11} <= 1
 R038: R{1,12} <= 1
 R039: R{1,13} <= 1
 R040: R{1,14} <= 1
 R041: R{2,0} <= 1
 R042: R{2,1} <= 1
 R043: R{2,2} <= 1
 R044: R{2,3} <= 1
 R045: R{2,4} <= 1
 R046: R{2,5} <= 1
 R047: R{2,6} <= 1
 R048: R{2,7} <= 1
 R049: R{3,0} <= 1
 R050: R{3,1} <= 1
 R051: R{3,2} <= 1
 R052: R{3,3} <= 1
 R053: R{3,4} <= 1
 R054: R{3,5} <= 1
 R055: R{3,6} <= 1
 R056: R{3,7} <= 1
 R057: R{3,8} <= 1
 R058: R{3,9} <= 1
 R059: R{3,10} <= 1
 R060: R{3,11} <= 1
 R061: R{3,12} <= 1
 R062: R{3,13} <= 1
 R063: R{3,14} <= 1
 R064: R{3,15} <= 1
 R065: R{3,16} <= 1
 R066: R{3,17} <= 1
 R067: R{3,18} <= 1
 R068: R{3,19} <= 1
 R069: R{3,20} <= 1
 R070: R{3,21} <= 1
 R071: R{3,22} <= 1
 R072: R{4,0} <= 1
 R073: R{4,1} <= 1
 R074: R{4,2} <= 1
 R075: R{4,3} <= 1
 R076: R{4,4} <= 1
 R077: R{4,5} <= 1
 R078: R{4,6} <= 1
 R079: R{4,7} <= 1
 R080: R{4,8} <= 1
 R081: R{4,9} <= 1
 R082: R{4,10} <= 1
 R083: R{4,11} <= 1
 R084: R{4,12} <= 1
 R085: R{4,13} <= 1
 R086: R{4,14} <= 1
 R087: R{4,15} <= 1
 R088: R{4,16} <= 1
 R089: R{4,17} <= 1
 R090: R{4,18} <= 1
 R091: R{4,19} <= 1
 R092: R{4,20} <= 1
 R093: R{4,21} <= 1
 R094: R{4,22} <= 1
 R095: R{4,23} <= 1
 R096: R{4,24} <= 1
 R097: R{4,25} <= 1
 R098: R{4,26} <= 1
 R099: R{4,27} <= 1
 R0100: R{5,0} <= 1
 R0101: R{5,1} <= 1
 R0102: R{5,2} <= 1
 R0103: R{5,3} <= 1
 R0104: R{5,4} <= 1
 R0105: R{5,5} <= 1
 R0106: R{5,6} <= 1
 R0107: R{5,7} <= 1
 R0108: R{5,8} <= 1
 R0109: R{5,9} <= 1
 R0110: R{5,10} <= 1
 R0111: R{5,11} <= 1
 R0112: R{5,12} <= 1
 R0113: R{5,13} <= 1
 R0114: R{5,14} <= 1
 R0115: R{5,15} <= 1
 R0116: R{5,16} <= 1
 R0117: R{5,17} <= 1
 R0118: R{5,18} <= 1
 R0119: R{5,19} <= 1
 R0120: R{5,20} <= 1
 R0121: R{5,21} <= 1
 R0122: R{5,22} <= 1
 R0123: R{5,23} <= 1
 R0124: R{6,0} <= 1
 R0125: R{6,1} <= 1
 R0126: R{6,2} <= 1
 R0127: R{6,3} <= 1
 R0128: R{6,4} <= 1
 R0129: R{6,5} <= 1
 R0130: R{6,6} <= 1
 R0131: R{6,7} <= 1
 R0132: R{6,8} <= 1
 R0133: R{6,9} <= 1
 R0134: R{6,10} <= 1
 R0135: R{6,11} <= 1
 R0136: R{6,12} <= 1
 R0137: R{6,13} <= 1
 R0138: R{6,14} <= 1
 R0139: R{6,15} <= 1
 R0140: R{6,16} <= 1
 R0141: R{6,17} <= 1
 R0142: R{6,18} <= 1
 R0143: R{6,19} <= 1
 R0144: R{6,20} <= 1
 R0145: R{6,21} <= 1
 R0146: R{6,22} <= 1
 R0147: R{6,23} <= 1
 R1_0: R{0,0} + R{0,1} + R{0,2} + R{0,3} + R{0,4} + R{0,5} + R{0,6}
   + R{0,7} + R{0,8} + R{0,9} + R{0,10} + R{0,11} + R{0,12} + R{0,13}
   + R{0,14} + R{0,15} + R{0,16} + R{0,17} + R{0,18} + R{0,19} + R{0,20}
   + R{0,21} + R{0,22} + R{0,23} + R{0,24} + R{0,25} <= 1
 R1_1: R{1,0} + R{1,1} + R{1,2} + R{1,3} + R{1,4} + R{1,5} + R{1,6}
   + R{1,7} + R{1,8} + R{1,9} + R{1,10} + R{1,11} + R{1,12} + R{1,13}
   + R{1,14} <= 1
 R1_2: R{2,0} + R{2,1} + R{2,2} + R{2,3} + R{2,4} + R{2,5} + R{2,6}
   + R{2,7} <= 1
 R1_3: R{3,0} + R{3,1} + R{3,2} + R{3,3} + R{3,4} + R{3,5} + R{3,6}
   + R{3,7} + R{3,8} + R{3,9} + R{3,10} + R{3,11} + R{3,12} + R{3,13}
   + R{3,14} + R{3,15} + R{3,16} + R{3,17} + R{3,18} + R{3,19} + R{3,20}
   + R{3,21} + R{3,22} <= 1
 R1_4: R{4,0} + R{4,1} + R{4,2} + R{4,3} + R{4,4} + R{4,5} + R{4,6}
   + R{4,7} + R{4,8} + R{4,9} + R{4,10} + R{4,11} + R{4,12} + R{4,13}
   + R{4,14} + R{4,15} + R{4,16} + R{4,17} + R{4,18} + R{4,19} + R{4,20}
   + R{4,21} + R{4,22} + R{4,23} + R{4,24} + R{4,25} + R{4,26} + R{4,27}
   <= 1
 R1_5: R{5,0} + R{5,1} + R{5,2} + R{5,3} + R{5,4} + R{5,5} + R{5,6}
   + R{5,7} + R{5,8} + R{5,9} + R{5,10} + R{5,11} + R{5,12} + R{5,13}
   + R{5,14} + R{5,15} + R{5,16} + R{5,17} + R{5,18} + R{5,19} + R{5,20}
   + R{5,21} + R{5,22} + R{5,23} <= 1
 R1_6: R{6,0} + R{6,1} + R{6,2} + R{6,3} + R{6,4} + R{6,5} + R{6,6}
   + R{6,7} + R{6,8} + R{6,9} + R{6,10} + R{6,11} + R{6,12} + R{6,13}
   + R{6,14} + R{6,15} + R{6,16} + R{6,17} + R{6,18} + R{6,19} + R{6,20}
   + R{6,21} + R{6,22} + R{6,23} <= 1
 R2_0: 7 R{0,0} + 7 R{0,1} + 7 R{0,2} + 7 R{0,6} + 7 R{0,7} + 7 R{0,8}
   + 7 R{0,9} + 7 R{0,11} + 7 R{0,12} + 7 R{0,14} + 7 R{0,15} + 7 R{0,17}
   + 7 R{0,18} + 7 R{0,20} + 7 R{0,22} + 7 R{0,23} + 7 R{0,24} + 7 R{6,21}
   <= 7
 R2_1: 10 R{0,18} + 10 R{1,7} + 10 R{1,12} + 10 R{1,13} + 10 R{2,7}
   + 10 R{3,1} + 10 R{3,2} + 10 R{3,3} + 10 R{3,4} + 10 R{3,5} + 10 R{3,6}
   + 10 R{3,8} + 10 R{3,12} + 10 R{3,14} + 10 R{3,15} + 10 R{3,17}
   + 10 R{3,18} + 10 R{3,19} + 10 R{5,21} + 10 R{6,16} + 10 R{6,19} <= 10
 R2_2: 15 R{6,3} + 15 R{6,8} + 15 R{6,19} + 15 R{6,20} + 15 R{6,21}
   + 15 R{6,22} <= 16
 R2_3: 4 R{1,11} + 4 R{5,1} + 4 R{5,2} + 4 R{5,3} + 4 R{5,4} + 4 R{5,5}
   + 4 R{5,6} + 4 R{5,7} + 4 R{5,8} + 4 R{5,9} + 4 R{5,10} + 4 R{5,12}
   + 4 R{5,13} + 4 R{5,14} + 4 R{5,15} + 4 R{5,16} + 4 R{5,17} + 4 R{5,18}
   + 4 R{5,19} + 4 R{5,20} + 4 R{5,23} <= 4
 R2_4: <= 0
 R2_5: 5 R{5,1} + 5 R{5,2} + 5 R{5,3} + 5 R{5,4} + 5 R{5,6} + 5 R{5,7}
   + 5 R{5,8} + 5 R{5,9} + 5 R{5,11} + 5 R{5,13} + 5 R{5,15} + 5 R{5,16}
   + 5 R{5,21} <= 5
 R2_6: 10 R{1,1} + 10 R{1,2} + 10 R{1,3} + 10 R{1,5} + 10 R{1,6}
   + 10 R{1,7} + 10 R{1,8} + 10 R{1,9} + 10 R{1,11} + 10 R{1,13}
   + 10 R{2,6} + 10 R{2,7} + 10 R{3,11} + 10 R{3,16} <= 10
 R2_7: 6 R{1,1} <= 6
 R2_8: <= 0
 R2_9: 12 R{4,1} + 12 R{4,2} + 12 R{4,3} + 12 R{4,5} + 12 R{4,6}
   + 12 R{4,7} + 12 R{4,8} + 12 R{4,9} + 12 R{4,10} + 12 R{4,11}
   + 12 R{4,12} + 12 R{4,13} + 12 R{4,14} + 12 R{4,16} + 12 R{4,17}
   + 12 R{4,18} + 12 R{4,19} + 12 R{4,20} + 12 R{4,22} + 12 R{4,23}
   + 12 R{4,24} + 12 R{4,26} + 12 R{4,27} + 12 R{6,23} <= 12
 R2_10: 8 R{6,1} + 8 R{6,2} + 8 R{6,4} + 8 R{6,5} + 8 R{6,6} + 8 R{6,14}
   + 8 R{6,16} + 8 R{6,18} + 8 R{6,19} + 8 R{6,21} + 8 R{6,22} <= 8
 R2_11: 15 R{4,15} + 15 R{6,19} + 15 R{6,20} + 15 R{6,21} <= 15
 R2_12: <= 0
 R2_13: <= 0
 R2_14: <= 0
 R2_15: 11 R{0,0} + 11 R{0,1} + 11 R{0,2} + 11 R{0,6} + 11 R{0,7}
   + 11 R{0,9} + 11 R{0,12} + 11 R{0,14} + 11 R{0,15} + 11 R{0,17}
   + 11 R{0,18} + 11 R{0,20} + 11 R{0,22} + 11 R{0,23} + 11 R{4,1}
   + 11 R{4,2} + 11 R{4,6} + 11 R{4,7} + 11 R{4,18} <= 11
 R2_16: <= 5
 R2_17: 11 R{0,18} + 11 R{0,23} + 11 R{4,20} <= 11
 R2_18: <= 0
 R2_19: 11 R{0,8} + 11 R{0,10} + 11 R{2,5} + 11 R{3,3} + 11 R{3,12}
   + 11 R{4,1} + 11 R{4,2} + 11 R{4,3} + 11 R{4,4} + 11 R{4,6} + 11 R{4,7}
   + 11 R{4,8} + 11 R{4,10} + 11 R{4,12} + 11 R{4,13} + 11 R{4,18}
   + 11 R{4,20} + 11 R{4,22} + 11 R{4,24} + 11 R{6,6} + 11 R{6,11} <= 11
 R2_20: 13 R{2,3} + 13 R{6,1} + 13 R{6,2} + 13 R{6,3} + 13 R{6,5}
   + 13 R{6,7} + 13 R{6,8} + 13 R{6,10} + 13 R{6,13} + 13 R{6,15}
   + 13 R{6,17} + 13 R{6,19} + 13 R{6,20} + 13 R{6,21} + 13 R{6,22}
   + 13 R{6,23} <= 13
 R2_21: <= 0
 R2_22: 10 R{0,22} + 10 R{3,22} + 10 R{4,18} + 10 R{6,3} + 10 R{6,8}
   + 10 R{6,10} + 10 R{6,13} + 10 R{6,19} + 10 R{6,20} + 10 R{6,21}
   + 10 R{6,22} + 10 R{6,23} <= 10
 R2_23: 14 R{4,3} + 14 R{4,5} + 14 R{4,23} + 14 R{6,2} + 14 R{6,3}
   + 14 R{6,5} + 14 R{6,8} + 14 R{6,13} + 14 R{6,22} <= 14
 R2_24: 10 R{0,14} + 10 R{0,18} + 10 R{0,20} + 10 R{0,22} + 10 R{1,9}
   + 10 R{1,10} + 10 R{1,14} + 10 R{2,6} + 10 R{2,7} + 10 R{3,1}
   + 10 R{3,2} + 10 R{3,4} + 10 R{3,11} + 10 R{3,14} + 10 R{3,16}
   + 10 R{3,17} + 10 R{3,20} + 10 R{4,26} + 10 R{4,27} + 10 R{5,5}
   + 10 R{5,6} + 10 R{5,8} + 10 R{5,10} + 10 R{5,12} + 10 R{5,13}
   + 10 R{5,15} + 10 R{5,17} + 10 R{5,20} + 10 R{5,22} + 10 R{5,23}
   + 10 R{6,3} + 10 R{6,10} + 10 R{6,19} + 10 R{6,20} + 10 R{6,21}
   + 10 R{6,23} <= 10
 R2_25: 13 R{0,0} + 13 R{0,1} + 13 R{0,2} + 13 R{0,6} + 13 R{0,7}
   + 13 R{0,8} + 13 R{0,9} + 13 R{0,11} + 13 R{0,12} + 13 R{0,13}
   + 13 R{0,14} + 13 R{0,15} + 13 R{0,17} + 13 R{0,20} + 5 R{0,22}
   + 13 R{0,24} + 13 R{4,1} + 13 R{4,2} + 13 R{4,3} + 13 R{4,4} + 13 R{4,6}
   + 13 R{4,8} + 13 R{4,10} + 13 R{4,12} + 13 R{4,15} + 13 R{4,19}
   + 13 R{4,21} + 13 R{4,26} + 13 R{4,27} <= 13
 R2_26: 6 R{1,10} + 6 R{1,14} + 6 R{3,16} + 6 R{3,20} + 6 R{3,21}
   + 6 R{5,1} + 6 R{5,2} + 6 R{5,3} + 6 R{5,4} + 6 R{5,5} + 6 R{5,6}
   + 6 R{5,7} + 6 R{5,8} + 6 R{5,10} + 6 R{5,11} + 6 R{5,12} + 6 R{5,13}
   + 6 R{5,14} + 6 R{5,15} + 6 R{5,17} + 6 R{5,18} + 6 R{5,19} + 6 R{5,20}
   + 6 R{5,21} + 6 R{5,22} + 6 R{5,23} <= 6
 R2_27: 5 R{0,12} + 5 R{0,15} + 5 R{1,6} + 5 R{3,4} + 5 R{3,7} + 5 R{3,15}
   + 5 R{3,18} + 5 R{4,4} + 5 R{4,15} + 5 R{5,2} + 5 R{5,3} + 5 R{5,5}
   + 5 R{5,7} + 5 R{5,9} + 5 R{5,12} + 5 R{5,14} + 5 R{5,16} + 5 R{5,18}
   + 5 R{6,1} + 5 R{6,2} + 5 R{6,3} + 5 R{6,4} + 5 R{6,5} + 5 R{6,7}
   + 5 R{6,10} + 5 R{6,14} + 5 R{6,15} + 5 R{6,16} + 5 R{6,17} <= 5
 R2_28: <= 0
 R2_29: <= 0
 R2_30: <= 0
 R2_31: 6 R{3,19} <= 6
 R2_32: 7 R{0,4} + 7 R{0,5} + 7 R{0,10} + 7 R{3,13} + 7 R{5,12} + 7 R{5,13}
   + 7 R{5,18} + 7 R{5,19} + 7 R{6,21} <= 7
 R2_33: 12 R{1,12} + 12 R{1,14} + 12 R{3,14} + 12 R{3,19} + 12 R{5,4}
   + 12 R{5,5} + 12 R{5,8} + 12 R{5,10} + 12 R{5,11} + 12 R{5,12}
   + 12 R{5,14} + 12 R{5,15} + 12 R{5,17} + 12 R{5,18} + 12 R{5,19}
   + 12 R{5,20} + 12 R{5,21} + 12 R{5,22} + 12 R{5,23} <= 12
 R2_34: 5 R{0,0} + 5 R{0,1} + 5 R{0,2} + 5 R{0,6} + 5 R{0,7} + 5 R{0,8}
   + 5 R{0,9} + 5 R{0,11} + 5 R{0,12} + 5 R{0,14} + 5 R{0,15} + 5 R{0,16}
   + 5 R{0,17} + 5 R{0,18} + 5 R{0,23} + 5 R{5,17} + 5 R{5,20} <= 5
 R2_35: 13 R{5,19} <= 13
 R2_36: 15 R{5,1} + 15 R{5,2} + 15 R{5,3} + 15 R{5,4} + 15 R{5,5}
   + 15 R{5,6} + 15 R{5,7} + 15 R{5,8} + 15 R{5,9} + 15 R{5,10}
   + 15 R{5,11} + 15 R{5,14} + 15 R{5,15} + 15 R{5,17} + 15 R{5,20}
   + 15 R{5,21} + 15 R{5,22} + 15 R{5,23} <= 16
 R2_37: 5 R{1,10} + 5 R{3,1} + 5 R{3,2} + 5 R{3,4} + 5 R{3,5} + 5 R{3,6}
   + 5 R{3,8} + 5 R{3,11} + 5 R{3,13} + 5 R{3,14} + 5 R{3,15} + 5 R{3,17}
   + 5 R{3,18} + 5 R{5,7} + 5 R{5,18} <= 5
 R2_38: <= 0
 R2_39: 15 R{0,0} + 15 R{0,1} + 15 R{0,2} + 15 R{0,6} + 15 R{0,8}
   + 15 R{0,9} + 15 R{0,12} + 15 R{0,14} + 15 R{0,15} + 15 R{0,17}
   + 15 R{0,20} + 15 R{0,22} + 15 R{0,23} <= 17
 R2_40: 15 R{2,1} + 15 R{2,2} + 15 R{2,3} + 15 R{2,4} + 15 R{2,5}
   + 15 R{2,6} + 15 R{2,7} <= 15
 R2_41: 5 R{0,0} + 5 R{0,1} + 5 R{0,2} + 5 R{0,6} + 5 R{0,7} + 5 R{0,9}
   + 5 R{0,11} + 5 R{0,13} + 5 R{0,15} + 5 R{0,16} + 5 R{0,17} + 5 R{0,19}
   + 5 R{0,20} + 5 R{0,21} + 5 R{0,22} + 5 R{0,24} + 5 R{0,25} + 5 R{1,4}
   + 5 R{3,2} + 5 R{3,3} + 5 R{3,5} + 5 R{3,7} + 5 R{3,9} + 5 R{3,10}
   + 5 R{3,13} + 5 R{3,18} + 5 R{3,22} + 5 R{4,5} + 5 R{4,7} + 5 R{4,9}
   + 5 R{4,11} + 5 R{4,13} + 5 R{4,14} + 5 R{4,16} + 5 R{4,17} + 5 R{4,19}
   + 5 R{4,22} + 5 R{4,23} + 5 R{4,24} + 5 R{5,16} + 5 R{6,5} + 5 R{6,10}
   + 5 R{6,12} + 5 R{6,14} + 5 R{6,15} + 5 R{6,17} <= 5
 R2_42: 4 R{2,1} + 4 R{2,2} + 4 R{2,3} + 4 R{2,4} + 4 R{2,5} + 4 R{2,6}
   <= 4
 R2_43: <= 0
 R2_44: <= 0
 R2_45: <= 0
 R2_46: 9 R{0,7} + 9 R{0,11} + 9 R{0,13} + 9 R{0,16} + 9 R{0,19}
   + 9 R{0,21} + 9 R{0,24} + 9 R{0,25} + 9 R{4,10} + 9 R{4,11} + 9 R{4,14}
   + 9 R{4,16} + 9 R{4,21} + 9 R{4,22} + 9 R{4,25} + 9 R{4,26} + 9 R{4,27}
   + 9 R{6,23} <= 9
 R2_47: 7 R{0,0} + 7 R{0,1} + 7 R{0,2} + 7 R{0,6} + 7 R{0,9} + 7 R{0,12}
   + 7 R{0,14} + 7 R{0,15} + 7 R{0,20} + 7 R{5,1} + 7 R{5,2} + 7 R{5,3}
   + 7 R{5,5} + 7 R{5,6} + 7 R{5,8} + 7 R{5,10} + 7 R{5,13} + 7 R{5,14}
   + 7 R{5,15} + 7 R{5,17} + 7 R{5,19} + 7 R{5,20} + 7 R{5,21} + 7 R{5,22}
   + 7 R{5,23} <= 7
 R2_48: 4 R{0,24} + 4 R{0,25} + 4 R{4,1} + 4 R{4,2} + 4 R{4,3} + 4 R{4,5}
   + 4 R{4,6} + 4 R{4,7} + 4 R{4,8} + 4 R{4,9} + 4 R{4,10} + 4 R{4,11}
   + 4 R{4,12} + 4 R{4,13} + 4 R{4,14} + 4 R{4,16} + 4 R{4,17} + 4 R{4,18}
   + 4 R{4,19} + 4 R{4,20} + 4 R{4,21} + 4 R{4,22} + 4 R{4,23} + 4 R{4,24}
   + 4 R{4,25} + 4 R{4,26} <= 4
 R2_49: <= 0
 R2_50: <= 0
 R2_51: 11 R{3,9} + 11 R{4,1} + 11 R{4,3} + 11 R{4,5} + 11 R{4,6}
   + 11 R{4,12} + 11 R{4,14} + 11 R{4,16} + 11 R{4,20} + 11 R{4,23}
   + 11 R{4,27} + 11 R{5,21} + 11 R{5,23} <= 11
 R2_52: 10 R{4,17} <= 10
 R2_53: 13 R{4,1} + 13 R{4,2} + 13 R{4,3} + 13 R{4,5} + 13 R{4,6}
   + 13 R{4,7} + 13 R{4,8} + 13 R{4,10} + 13 R{4,11} + 13 R{4,12}
   + 13 R{4,18} + 13 R{4,20} + 13 R{4,22} + 13 R{4,23} + 13 R{4,24}
   + 13 R{4,26} <= 13
 R2_54: 9 R{3,1} + 9 R{3,2} + 9 R{3,3} + 9 R{3,5} + 9 R{3,6} + 9 R{3,8}
   + 9 R{3,9} + 9 R{3,11} + 9 R{3,12} + 9 R{3,15} + 9 R{3,17} + 9 R{3,18}
   <= 9
 R2_55: 8 R{3,17} + 8 R{6,1} + 8 R{6,2} + 8 R{6,4} + 8 R{6,5} + 8 R{6,6}
   + 8 R{6,7} + 8 R{6,9} + 8 R{6,11} + 8 R{6,12} + 8 R{6,14} + 8 R{6,15}
   + 8 R{6,16} + 8 R{6,17} + 8 R{6,18} <= 8
 R2_56: 6 R{0,1} + 6 R{0,2} + 6 R{0,6} + 6 R{0,8} + 6 R{0,15} + 6 R{0,18}
   + 6 R{0,20} + 6 R{0,23} + 6 R{4,19} + 6 R{4,21} + 6 R{5,16} + 6 R{5,19}
   + 6 R{6,3} + 6 R{6,7} + 6 R{6,15} + 6 R{6,18} + 6 R{6,20} <= 6
 R2_57: <= 0
 R2_58: <= 0
 R2_59: 10 R{0,13} + 10 R{0,16} + 10 R{0,19} + 10 R{0,21} + 10 R{0,25}
   + 10 R{4,4} + 10 R{4,15} + 10 R{4,21} + 10 R{4,25} + 10 R{4,27}
   + 10 R{5,15} + 10 R{5,22} + 10 R{5,23} + 10 R{6,11} + 10 R{6,23} <= 10
 R2_60: <= 0
 R2_61: 9 R{0,11} + 9 R{0,13} + 9 R{0,16} + 9 R{0,19} + 9 R{0,21}
   + 9 R{0,25} + 9 R{4,4} + 9 R{4,13} + 9 R{4,15} + 9 R{4,21} + 9 R{4,25}
   + 9 R{5,17} + 9 R{5,20} + 9 R{5,22} + 9 R{6,23} <= 9
 R2_62: <= 0
 R2_63: <= 0
 R2_64: <= 0
 R2_65: 5 R{0,9} + 5 R{0,23} + 5 R{4,21} + 5 R{6,1} + 5 R{6,2} + 5 R{6,3}
   + 5 R{6,4} + 5 R{6,5} + 5 R{6,6} + 5 R{6,7} + 5 R{6,8} + 5 R{6,9}
   + 5 R{6,10} + 5 R{6,12} + 5 R{6,13} + 5 R{6,14} + 5 R{6,16} + 5 R{6,18}
   + 5 R{6,19} + 5 R{6,20} + 5 R{6,22} <= 5
 R2_66: 7 R{1,3} + 7 R{1,12} + 7 R{1,13} + 7 R{1,14} + 7 R{4,4} + 7 R{4,15}
   + 7 R{6,1} + 7 R{6,2} + 7 R{6,4} + 7 R{6,5} + 7 R{6,6} + 7 R{6,9}
   + 7 R{6,11} + 7 R{6,12} + 7 R{6,14} + 7 R{6,16} + 7 R{6,18} <= 7
 R2_67: <= 3
 R2_68: 6 R{1,1} + 6 R{1,2} + 6 R{1,3} + 6 R{1,5} + 6 R{1,6} + 6 R{1,8}
   + 6 R{1,9} + 6 R{1,11} + 6 R{1,12} + 6 R{3,21} <= 6
 R2_69: 7 R{0,0} + 7 R{0,1} + 7 R{0,2} + 7 R{0,6} + 7 R{0,8} + 7 R{0,9}
   + 7 R{0,17} + 7 R{1,8} + 7 R{4,1} + 7 R{4,2} + 7 R{4,3} + 7 R{4,5}
   + 7 R{4,6} + 7 R{4,7} + 7 R{4,8} + 7 R{4,9} + 7 R{4,10} + 7 R{4,12}
   + 7 R{4,13} + 7 R{4,14} + 7 R{4,16} + 7 R{4,17} + 7 R{4,18} + 7 R{4,19}
   + 7 R{4,20} + 7 R{4,22} + 7 R{4,23} + 7 R{4,24} + 5 R{5,10} + 7 R{5,19}
   <= 7
 R2_70: 11 R{1,1} + 11 R{1,2} + 11 R{1,5} + 11 R{1,8} <= 11
 R2_71: <= 7
 R2_72: <= 0
 R2_73: 11 R{0,0} + 11 R{0,1} + 11 R{0,2} + 11 R{0,6} + 11 R{0,7}
   + 11 R{0,8} + 11 R{0,9} + 11 R{0,12} + 11 R{0,14} + 11 R{0,15}
   + 11 R{0,17} + 11 R{0,18} + 11 R{0,20} + 11 R{0,22} + 11 R{0,23}
   + 11 R{0,24} <= 11
 R2_74: 5 R{5,1} + 5 R{5,2} + 5 R{5,3} + 5 R{5,4} + 5 R{5,6} + 5 R{5,7}
   + 5 R{5,8} + 5 R{5,9} + 5 R{5,11} + 5 R{5,13} + 5 R{5,14} + 5 R{5,16}
   + 5 R{5,21} <= 5
 R2_75: 8 R{6,1} + 8 R{6,2} + 8 R{6,3} + 8 R{6,4} + 8 R{6,6} + 8 R{6,7}
   + 8 R{6,9} + 8 R{6,16} + 8 R{6,17} + 8 R{6,18} + 8 R{6,20} + 8 R{6,21}
   + 8 R{6,23} <= 8
 R2_76: 12 R{0,4} + 12 R{0,5} + 12 R{1,7} + 12 R{5,16} + 12 R{6,3}
   + 12 R{6,8} + 12 R{6,10} + 12 R{6,13} + 12 R{6,20} + 12 R{6,21}
   + 12 R{6,22} + 12 R{6,23} <= 12
 R2_77: 7 R{0,1} + 7 R{0,2} + 7 R{0,5} + 7 R{0,10} + 7 R{1,2} + 7 R{1,5}
   + 7 R{1,7} + 7 R{1,10} + 7 R{2,2} + 7 R{2,3} + 7 R{2,4} + 7 R{2,5}
   + 5 R{2,6} + 7 R{3,8} + 7 R{3,12} + 7 R{3,16} + 7 R{3,20} + 7 R{4,2}
   + 7 R{4,9} + 7 R{5,2} + 7 R{5,3} + 5 R{5,4} + 5 R{5,5} + 5 R{5,6}
   + 5 R{5,9} + 7 R{5,11} + 5 R{5,12} + 5 R{5,15} + 5 R{5,16} + 5 R{5,17}
   + 7 R{6,8} <= 7
Bounds
End
